\* mdp_lp *\
Minimize
OBJ: __dummy
Subject To
_C1: - 0.36365275085 v_pi_0 + 0.35365275085 v_pi_1 = 0.274351056872
_C2: 0.268897845447 v_pi_0 - 0.278897874951 v_pi_1 = 0.144614112837
Bounds
__dummy = 0
v_pi_0 free
v_pi_1 free
End
